10
Properties=species:S:1:pos:R:3 pbc="F F F"
C       -1.29760821      -0.17362731      -0.15996359
C       -0.03031870       0.50109362       0.27484725
O       -0.09501000       1.57027798       0.86129014
C        1.31457053      -0.10671505       0.00619684
H       -1.08993390      -1.13277004      -0.67864713
H       -1.85271488       0.49171660      -0.85394862
H       -1.93098993      -0.38068949       0.72795206
H        1.84014872      -0.28409129       0.96783387
H        1.91843051       0.58831633      -0.61406503
H        1.22342585      -1.07351134      -0.53149579
